7 11 8 3 12 1 13 0 14 6 9 4 2 10 5
12 1 11 9 6 3 2 4 5 8 13 14 10 0 7
1 2 9 0 3 5 8 4 14 10 12 13 7 6 11
13 10 6 2 14 7 4 11 0 5 9 3 8 1 12
1 8 4 14 6 5 3 2 9 10 13 7 11 0 12
5 14 2 12 10 1 11 4 6 9 0 13 8 3 7
5 2 0 1 8 14 11 10 7 9 6 12 4 13 3
4 7 10 1 9 8 2 14 11 3 5 6 13 12 0
14 11 0 9 10 5 3 12 8 13 6 1 7 2 4
9 0 3 10 12 13 5 1 6 14 8 11 2 7 4
7 2 1 12 3 14 4 6 5 9 8 13 10 0 11
0 8 14 12 9 5 6 10 7 11 3 4 1 13 2
8 12 10 11 14 3 6 1 4 5 0 9 13 2 7
13 2 11 0 14 10 3 1 12 4 5 6 7 9 8
1 13 0 11 2 10 4 8 3 5 7 6 9 12 14